!B3LYP D3ZERO cc-pVDZ ENGRAD
!Angs NoUseSym

# QM coordinates provided by GENESIS
*xyzfile 0 1

# SCF convergence
%scf
  maxiter 100
  Guess   MORead
  MOInp   "moinp.gbw"
end

# 1GB memory per process
%MaxCore 1024

# MPI processes
%pal nprocs 2 end
