$comment
QChem run for QMMM in genesis
$end

$rem
method            B3LYP
dft_d             empirical_grimme3
basis             mixed
jobtype           force
qm_mm             true
qmmm_print        false
max_scf_cycles    500
symmetry          off
sym_ignore        true
mem_static        2000
scf_guess         read
$end

$molecule
0 1
$end

$basis
    O    1
    aug-cc-pVDZ
    ****
    H    2
    aug-cc-pVDZ
    ****
    H    3
    aug-cc-pVDZ
    ****
    O    4
    cc-pVDZ
    ****
    H    5
    cc-pVDZ
    ****
    H    6
    cc-pVDZ
    ****
$end

