$comment
QChem run for QMMM in genesis
$end

$rem
method            B3LYP
basis             cc-pVDZ
jobtype           force
qm_mm             true
qmmm_print        false
scf_convergence   8
thresh            12
scf_algorithm     DIIS
max_scf_cycles    500
symmetry          off
sym_ignore        true
mem_static        2000
scf_guess         read
$end

$molecule
0 1
$end

